(declare-fun ExpandObjSwitcher () Real)
(declare-fun Constructed_Argument_t () String)
(declare-fun Constructed_Argument_2_t () String)
(declare-fun Constructed_Argument_2_Array_Length () Int)
(declare-fun CreateAsClass () Bool)
(declare-fun Constructed_Argument_elements_prototype_0_t () String)
(declare-fun CreateAsClass_2 () Bool)
(assert (= ExpandObjSwitcher 0.0))
(assert (= Constructed_Argument_t "object"))
(assert (= Constructed_Argument_2_t "array_string"))
(assert (>= Constructed_Argument_2_Array_Length 0))
(assert CreateAsClass)
(assert (= Constructed_Argument_elements_prototype_0_t "object"))
(assert CreateAsClass_2)
(check-sat)
